SDVRP instances/custom_instances/p02_28_splitx10_0.vrp
NAME:p02_28_splitx10_
BEST_KNOWN: 0
COMMENT: 0
DIMENSION: 366
CAPACITY: 1400
EDGE_WEIGHT_FORMAT: FUNCTION
EDGE_WEIGHT_TYPE: EXACT_2D
NODE_COORD_SECTION
1 0.00000 0.00000
2 -12 -12
3 -12 -12
4 -12 -12
5 -12 -12
6 -12 -12
7 47 25
8 47 25
9 47 25
10 47 25
11 14 20
12 14 20
13 14 20
14 14 20
15 23 -26
16 23 -26
17 23 -26
18 -23 30
19 -23 30
20 -23 30
21 -23 30
22 -1 49
23 -1 49
24 -1 49
25 -1 49
26 -1 49
27 -1 49
28 -1 49
29 46 43
30 46 43
31 4 45
32 4 45
33 4 45
34 4 45
35 -41 -25
36 -41 -25
37 -41 -25
38 23 -8
39 23 -8
40 23 -8
41 23 -8
42 23 -8
43 23 -8
44 -15 -8
45 -15 -8
46 -15 -8
47 -18 29
48 -18 29
49 -18 29
50 -18 29
51 -18 29
52 8 -46
53 8 -46
54 8 -46
55 8 -46
56 8 -46
57 24 31
58 24 31
59 24 31
60 24 31
61 24 31
62 -39 -31
63 -39 -31
64 -39 -31
65 30 41
66 30 41
67 30 41
68 30 41
69 30 41
70 44 -34
71 44 -34
72 44 -34
73 44 -34
74 -37 -37
75 -37 -37
76 -37 -37
77 -37 -37
78 -37 -37
79 31 50
80 31 50
81 31 50
82 31 50
83 31 50
84 31 50
85 35 -44
86 35 -44
87 35 -44
88 35 -44
89 35 -44
90 35 -44
91 -40 47
92 -40 47
93 -40 47
94 -40 47
95 -40 47
96 8 -39
97 8 -39
98 8 -39
99 28 -5
100 28 -5
101 -32 21
102 -45 30
103 -45 30
104 -45 30
105 -45 30
106 -45 30
107 -45 30
108 -45 30
109 -6 2
110 -6 2
111 -6 2
112 -6 2
113 -6 2
114 26 30
115 26 30
116 26 30
117 26 30
118 19 -43
119 19 -43
120 19 -43
121 -42 12
122 -42 12
123 -42 12
124 -42 12
125 -42 12
126 39 -27
127 39 -27
128 39 -27
129 39 -27
130 39 -27
131 39 -27
132 4 3
133 4 3
134 4 3
135 4 3
136 20 -23
137 20 -23
138 20 -23
139 20 -23
140 20 -23
141 20 -23
142 -39 6
143 -39 6
144 -39 6
145 32 31
146 32 31
147 32 31
148 32 31
149 -9 16
150 -9 16
151 -9 16
152 -9 16
153 -9 16
154 -9 16
155 -9 16
156 24 -48
157 24 -48
158 23 -11
159 23 -11
160 23 -11
161 23 -11
162 23 -11
163 23 -11
164 23 -11
165 -31 -21
166 -31 -21
167 -31 -21
168 -31 -21
169 -31 -21
170 34 -24
171 34 -24
172 34 -24
173 34 -24
174 34 -24
175 34 -24
176 34 -24
177 -21 -28
178 -21 -28
179 -21 -28
180 -15 5
181 -15 5
182 -15 5
183 -15 5
184 11 23
185 11 23
186 11 23
187 11 23
188 6 39
189 6 39
190 6 39
191 6 39
192 6 39
193 -33 16
194 -33 16
195 -33 16
196 -33 16
197 -33 16
198 -33 16
199 -33 16
200 -33 16
201 18 -19
202 18 -19
203 18 -19
204 18 -19
205 45 23
206 45 23
207 45 23
208 45 23
209 45 23
210 40 -11
211 40 -11
212 40 -11
213 40 -11
214 40 -11
215 40 -11
216 40 -11
217 0 -15
218 0 -15
219 0 -15
220 0 -15
221 0 -15
222 0 -15
223 -23 -15
224 -23 -15
225 -49 -38
226 -49 -38
227 -49 -38
228 -49 -38
229 -49 -38
230 -3 -39
231 -3 -39
232 -3 -39
233 -3 -39
234 -3 -39
235 -3 -39
236 24 12
237 24 12
238 24 12
239 24 12
240 24 12
241 24 12
242 37 -36
243 40 18
244 40 18
245 40 18
246 40 18
247 40 18
248 40 18
249 40 18
250 -46 -33
251 -46 -33
252 -46 -33
253 -46 -33
254 -46 -33
255 5 -2
256 5 -2
257 5 -2
258 5 -2
259 5 -2
260 -14 -9
261 -14 -9
262 -35 46
263 -35 46
264 -35 46
265 -35 46
266 -35 46
267 -35 46
268 -35 46
269 28 -9
270 28 -9
271 28 -9
272 28 -9
273 28 -9
274 28 -9
275 28 -9
276 28 -9
277 48 43
278 48 43
279 48 43
280 -24 7
281 -24 7
282 -24 7
283 -24 7
284 -24 7
285 22 -35
286 22 -35
287 22 -35
288 22 -35
289 22 -35
290 22 -35
291 4 -5
292 4 -5
293 4 -5
294 4 -5
295 4 -5
296 4 -5
297 4 -5
298 -31 22
299 -31 22
300 -31 22
301 -31 22
302 -31 22
303 -31 22
304 -31 22
305 -31 22
306 30 -45
307 30 -45
308 30 -45
309 30 -45
310 30 -45
311 30 -45
312 30 -45
313 30 -45
314 -10 28
315 -10 28
316 -10 28
317 -10 28
318 -10 28
319 -10 28
320 -10 28
321 -10 28
322 -19 8
323 -19 8
324 -19 8
325 -19 8
326 -19 8
327 -19 8
328 -19 8
329 -43 4
330 -43 4
331 -43 4
332 -43 4
333 -43 4
334 -43 4
335 -43 4
336 -44 -21
337 -44 -21
338 -44 -21
339 -44 -21
340 -44 -21
341 -44 -21
342 15 8
343 15 8
344 15 8
345 19 33
346 19 33
347 19 33
348 19 33
349 19 33
350 -31 -10
351 -31 -10
352 -31 -10
353 -31 -10
354 36 14
355 36 14
356 36 14
357 36 14
358 -34 33
359 -34 33
360 -34 33
361 30 -16
362 30 -16
363 30 -16
364 30 -16
365 30 -16
366 30 -16
DEMAND_SECTION
1 0
2 280
3 280
4 70
5 14
6 6
7 140
8 14
9 14
10 2
11 280
12 140
13 70
14 10
15 280
16 280
17 70
18 280
19 14
20 14
21 12
22 280
23 280
24 70
25 14
26 14
27 14
28 8
29 280
30 70
31 280
32 280
33 14
34 6
35 280
36 70
37 10
38 280
39 140
40 14
41 14
42 14
43 8
44 280
45 14
46 6
47 280
48 140
49 14
50 14
51 12
52 140
53 70
54 14
55 14
56 2
57 280
58 70
59 14
60 14
61 12
62 280
63 280
64 140
65 140
66 70
67 14
68 14
69 2
70 280
71 14
72 14
73 12
74 140
75 70
76 14
77 14
78 12
79 280
80 280
81 14
82 14
83 14
84 8
85 140
86 70
87 14
88 14
89 14
90 8
91 280
92 14
93 14
94 14
95 8
96 280
97 14
98 6
99 280
100 70
101 280
102 140
103 70
104 14
105 14
106 14
107 14
108 4
109 280
110 70
111 14
112 14
113 12
114 140
115 14
116 14
117 12
118 280
119 140
120 70
121 280
122 280
123 70
124 14
125 6
126 280
127 280
128 70
129 14
130 14
131 12
132 280
133 280
134 70
135 10
136 280
137 280
138 70
139 14
140 14
141 12
142 280
143 70
144 10
145 280
146 14
147 14
148 12
149 280
150 280
151 14
152 14
153 14
154 14
155 4
156 280
157 280
158 280
159 280
160 70
161 14
162 14
163 14
164 8
165 140
166 70
167 14
168 14
169 2
170 140
171 70
172 14
173 14
174 14
175 14
176 4
177 280
178 140
179 10
180 280
181 70
182 14
183 6
184 280
185 14
186 14
187 2
188 280
189 280
190 70
191 14
192 6
193 280
194 280
195 70
196 14
197 14
198 14
199 14
200 4
201 280
202 140
203 70
204 10
205 280
206 280
207 14
208 14
209 12
210 140
211 70
212 14
213 14
214 14
215 14
216 4
217 280
218 14
219 14
220 14
221 14
222 4
223 280
224 70
225 280
226 140
227 70
228 14
229 6
230 140
231 14
232 14
233 14
234 14
235 4
236 280
237 140
238 14
239 14
240 14
241 8
242 280
243 280
244 70
245 14
246 14
247 14
248 14
249 4
250 280
251 280
252 14
253 14
254 12
255 280
256 280
257 14
258 14
259 2
260 280
261 280
262 140
263 70
264 14
265 14
266 14
267 14
268 4
269 280
270 140
271 70
272 14
273 14
274 14
275 14
276 4
277 140
278 70
279 10
280 280
281 280
282 14
283 14
284 12
285 280
286 280
287 70
288 14
289 14
290 2
291 280
292 280
293 14
294 14
295 14
296 14
297 4
298 280
299 140
300 70
301 14
302 14
303 14
304 14
305 4
306 280
307 140
308 70
309 14
310 14
311 14
312 14
313 4
314 280
315 280
316 70
317 14
318 14
319 14
320 14
321 4
322 280
323 70
324 14
325 14
326 14
327 14
328 4
329 280
330 70
331 14
332 14
333 14
334 14
335 4
336 280
337 140
338 70
339 14
340 14
341 12
342 140
343 70
344 10
345 140
346 14
347 14
348 14
349 8
350 140
351 14
352 14
353 2
354 140
355 14
356 14
357 2
358 140
359 70
360 10
361 280
362 280
363 70
364 14
365 14
366 2
DEPOT_SECTION
1
-1
EOF