SDVRP instances/custom_instances/p02_28_splitx10_0.sol
365 -2 1 5 4 3 -11 13 57 59 58 60 56 68 66 64 65 67 145 146 147 144 116 115 114 113 -21 25 26 22 24 23 27 31 32 33 30 -36 253 250 251 249 252 228 227 225 226 224 75 74 77 76 73 -37 41 40 38 42 39 270 271 273 272 269 275 268 274 98 99 -50 49 48 47 46 17 18 19 20 297 298 300 303 304 302 301 299 -86 84 89 87 85 88 307 310 306 305 311 308 309 312 156 155 -97 95 96 119 118 117 55 54 53 51 52 234 229 232 231 233 230 218 219 217 -100 105 106 103 101 102 104 107 92 93 94 91 90 265 262 263 261 264 266 267 358 357 359 -112 110 111 108 109 43 45 44 260 259 -124 120 121 123 122 193 198 199 195 196 194 192 197 -132 131 134 133 -139 137 140 15 16 14 286 288 289 284 285 287 -151 152 150 153 154 148 149 327 325 324 321 323 322 326 182 180 181 179 -160 161 159 163 158 157 162 290 291 296 293 294 295 292 -167 166 168 165 164 62 61 63 178 176 177 -175 172 125 130 128 129 127 126 71 70 72 69 241 -185 186 183 184 12 10 235 236 341 343 342 -190 191 189 188 187 313 314 317 318 320 316 319 315 -201 203 202 200 136 135 138 216 221 220 -210 209 213 212 214 211 215 171 173 170 174 169 360 364 363 361 362 365 -222 223 35 34 340 335 338 337 339 336 349 351 350 352 -240 239 237 238 8 7 6 9 204 206 208 205 207 248 247 245 246 242 244 243 354 355 353 356 -254 256 255 257 258 -277 276 278 28 29 79 80 81 83 82 78 344 348 347 346 345 -283 282 281 280 279 141 142 143 328 334 329 333 331 332 330 0 





OBJ=
2213.496
BEST_KNOWN=
0.000